p cnf 12 22
-12 -11 9 0
-12 10 -6 0
-12 8 1 0
-12 -6 -4 0
-12 -5 2 0
12 2 -1 0
-11 -10 5 0
-11 8 3 0
-11 -7 4 0
-10 9 4 0
-10 -6 3 0
-10 -6 -1 0
-9 8 -7 0
9 -8 -4 0
9 -5 -4 0
9 4 -3 0
-9 4 -2 0
-7 -5 2 0
-7 -4 3 0
7 4 2 0
-7 -3 -1 0
4 3 1 0
